; TODO try replacing this with int
(declare-datatype nat ((zero) (s (s_0 nat))))
(declare-datatype list (par (a) ((Nil) (Cons (Cons_0 a) (Cons_1 (list a))))))
(declare-datatype tree (par (a) ((Leaf) (Node (Node_0 (tree a)) (Node_1 a) (Node_2 (tree a))))))
(declare-datatype pair (par (a b) ((Pair (Pair_0 a) (Pair_1 b)))))
(declare-fun plus (nat nat) nat)
(assert (forall ((x nat)) (= (plus zero x) x)))
(assert (forall ((x nat) (y nat)) (= (plus (s x) y) (s (plus x y)))))
(declare-fun minus (nat nat) nat)
(assert (forall ((n nat)) (= (minus zero n) zero) ))
(assert (forall ((n nat)) (= (minus n zero) n) ))
(assert (forall ((n nat) (m nat)) (= (minus (s n) (s m)) (minus n m)) ))
(declare-fun less (par (a) (a a) Bool))
(assert (forall ((x nat)) (not (less nat x zero))))
(assert (forall ((x nat)) (less nat zero (s x))))
(assert (forall ((x nat) (y nat)) (= (less nat (s x) (s y)) (less nat x y))))
(declare-fun leq (par (a) (a a) Bool))
(assert (par (a) (forall ((x a) (y a)) (= (leq a x y) (or (= x y) (less a x y))))))
(declare-fun div2 (nat) nat)
(assert (= (div2 zero) zero))
(assert (= (div2 (s zero)) zero))
(assert (forall ((n nat)) (= (div2 (s (s n))) (s (div2 n)))))
(declare-fun len (par (a) ((list a)) nat))
(assert (par (a) (= (len a (Nil a)) zero)))
(assert (par (a) (forall ((x a) (xs (list a))) (= (len a (Cons a x xs)) (s (len a xs))))))
(declare-fun size (par (a) ((tree a)) nat))
(assert (par (a) (= (size a (Leaf a)) zero)))
(assert (par (a) (forall ((l (tree a)) (x a) (r (tree a))) (= (size a (Node a l x r)) (s (plus (size a l) (size a r)))))))
(declare-fun balance (par (a) (nat (list a)) (pair (tree a) (list a))))
(assert (par (a) (forall ((n nat) (xs (list a))) (= (balance a n xs) (ite (= n zero) (Pair (tree a) (list a) (Leaf a) xs)
  (let ((m (div2 n))) (let ((lys (balance a m xs))) (let ((rzs (balance a (minus n (s m)) (Cons_1 a (Pair_1 (tree a) (list a) lys)))))
    (Pair (tree a) (list a) (Node a (Pair_0 (tree a) (list a) lys) (Cons_0 a (Pair_1 (tree a) (list a) lys)) (Pair_0 (tree a) (list a) rzs)) (Pair_1 (tree a) (list a) rzs))))))))))
(declare-fun braun (par (a) ((tree a)) Bool))
(assert (par (a) (braun a (Leaf a))))
(assert (par (a) (forall ((l (tree a)) (x a) (r (tree a))) (= (braun a (Node a l x r))
  (and (or (= (size a l) (size a r)) (= (size a l) (s (size a r)))) (braun a l) (braun a r))))))

; n <= |xs| & bal(n,xs) = (t,zs) -> braun(t)
(assert-not (par (a) (forall ((n nat) (xs (list a)) (t (tree a)) (zs (list a))) (=> (and (leq nat n (len a xs)) (= (balance a n xs) (Pair (tree a) (list a) t zs))) (braun a t)))))
